
  22    4
  10   10   10   10

   0   0   0   0   0   6 2 3 4 5 7 8 
   7  10  10  10  10   3 15 9 6 
   6  10  10  10  10   2 9 6 
   9  10  10  10  10   5 15 14 13 12 10 
   7  10  10  10  10   4 15 14 10 9 
   9  10  10  10  10   4 19 14 12 10 
  10  10  10  10  10   4 15 14 12 11 
   8  10  10  10  10   4 21 18 14 11 
   6  10  10  10  10   2 18 11 
   8  10  10  10  10   4 21 18 17 16 
   2  10  10  10  10   3 19 17 16 
   5  10  10  10  10   3 20 18 16 
  10  10  10  10  10   3 21 17 16 
   8  10  10  10  10   2 20 16 
   3  10  10  10  10   2 19 17 
   3  10  10  10  10   1 22
   2  10  10  10  10   1 22
   7  10  10  10  10   1 22
   2  10  10  10  10   1 22
   6  10  10  10  10   1 22
   8  10  10  10  10   1 22
   0   0   0   0   0   0 
